p cnf 581 912
25 0
-26 -39 0
26 39 0
-2 39 -40 0
2 -39 -40 0
-2 -39 40 0
2 39 40 0
-40 0
-1 -39 -41 0
1 39 -41 0
-1 39 41 0
1 -39 41 0
-41 0
-39 -43 0
39 43 0
-1 44 0
-43 44 0
1 43 -44 0
-45 -46 0
45 46 0
-4 46 -47 0
4 -46 -47 0
-4 -46 47 0
4 46 47 0
-47 0
-3 -46 -48 0
3 46 -48 0
-3 46 48 0
3 -46 48 0
-48 0
-46 -50 0
46 50 0
-3 51 0
-50 51 0
3 50 -51 0
-2 4 52 0
2 4 -52 0
2 -4 52 0
-2 -4 -52 0
4 -53 0
2 -53 0
-2 -4 53 0
-54 -55 0
54 55 0
-6 55 -56 0
6 -55 -56 0
-6 -55 56 0
6 55 56 0
-56 0
-5 -55 -57 0
5 55 -57 0
-5 55 57 0
5 -55 57 0
-57 0
-55 -59 0
55 59 0
-5 60 0
-59 60 0
5 59 -60 0
53 -61 0
52 -61 0
-52 -53 61 0
-52 -53 -62 0
52 53 -62 0
52 -53 62 0
-52 53 62 0
6 -52 63 0
6 52 -63 0
-6 52 63 0
-6 -52 -63 0
6 -53 64 0
6 53 -64 0
-6 -62 64 0
-6 62 -64 0
6 -65 0
61 -65 0
-6 -61 65 0
-66 -67 0
66 67 0
-8 67 -68 0
8 -67 -68 0
-8 -67 68 0
8 67 68 0
-68 0
-7 -67 -69 0
7 67 -69 0
-7 67 69 0
7 -67 69 0
-69 0
-67 -71 0
67 71 0
-7 72 0
-71 72 0
7 71 -72 0
64 -73 0
63 -73 0
-63 -64 73 0
-63 -64 -74 0
63 64 -74 0
63 -64 74 0
-63 64 74 0
65 -75 0
73 -75 0
-65 -73 75 0
-65 -73 -76 0
65 73 -76 0
-65 73 76 0
65 -73 76 0
8 -63 77 0
8 63 -77 0
-8 63 77 0
-8 -63 -77 0
8 -64 78 0
8 64 -78 0
-8 -74 78 0
-8 74 -78 0
8 -65 79 0
8 65 -79 0
-8 -76 79 0
-8 76 -79 0
8 -80 0
75 -80 0
-8 -75 80 0
-81 -82 0
81 82 0
-10 82 -83 0
10 -82 -83 0
-10 -82 83 0
10 82 83 0
-83 0
-9 -82 -84 0
9 82 -84 0
-9 82 84 0
9 -82 84 0
-84 0
-82 -86 0
82 86 0
-9 87 0
-86 87 0
9 86 -87 0
-78 88 0
-77 88 0
77 78 -88 0
-77 -78 -89 0
77 78 -89 0
77 -78 89 0
-77 78 89 0
79 -90 0
88 -90 0
-79 -88 90 0
-79 -88 -91 0
79 88 -91 0
-79 88 91 0
79 -88 91 0
80 -92 0
90 -92 0
-80 -90 92 0
-80 -90 -93 0
80 90 -93 0
-80 90 93 0
80 -90 93 0
10 -77 94 0
10 77 -94 0
-10 77 94 0
-10 -77 -94 0
10 -78 95 0
10 78 -95 0
-10 89 95 0
-10 -89 -95 0
10 -79 96 0
10 79 -96 0
-10 -91 96 0
-10 91 -96 0
10 -80 97 0
10 80 -97 0
-10 -93 97 0
-10 93 -97 0
10 -98 0
92 -98 0
-10 -92 98 0
-99 -100 0
99 100 0
-12 100 -101 0
12 -100 -101 0
-12 -100 101 0
12 100 101 0
-101 0
-11 -100 -102 0
11 100 -102 0
-11 100 102 0
11 -100 102 0
-102 0
-100 -104 0
100 104 0
-11 105 0
-104 105 0
11 104 -105 0
-95 106 0
-94 106 0
94 95 -106 0
-94 -95 -107 0
94 95 -107 0
94 -95 107 0
-94 95 107 0
96 -108 0
106 -108 0
-96 -106 108 0
-96 -106 -109 0
96 106 -109 0
-96 106 109 0
96 -106 109 0
97 -110 0
108 -110 0
-97 -108 110 0
-97 -108 -111 0
97 108 -111 0
-97 108 111 0
97 -108 111 0
98 -112 0
110 -112 0
-98 -110 112 0
-98 -110 -113 0
98 110 -113 0
-98 110 113 0
98 -110 113 0
12 -94 114 0
12 94 -114 0
-12 94 114 0
-12 -94 -114 0
12 -95 115 0
12 95 -115 0
-12 107 115 0
-12 -107 -115 0
12 -96 116 0
12 96 -116 0
-12 -109 116 0
-12 109 -116 0
12 -97 117 0
12 97 -117 0
-12 -111 117 0
-12 111 -117 0
12 -98 118 0
12 98 -118 0
-12 -113 118 0
-12 113 -118 0
12 -119 0
112 -119 0
-12 -112 119 0
-120 -121 0
120 121 0
-14 121 -122 0
14 -121 -122 0
-14 -121 122 0
14 121 122 0
-122 0
-13 -121 -123 0
13 121 -123 0
-13 121 123 0
13 -121 123 0
-123 0
-121 -125 0
121 125 0
-13 126 0
-125 126 0
13 125 -126 0
-115 127 0
-114 127 0
114 115 -127 0
-114 -115 -128 0
114 115 -128 0
114 -115 128 0
-114 115 128 0
116 -129 0
127 -129 0
-116 -127 129 0
-116 -127 -130 0
116 127 -130 0
-116 127 130 0
116 -127 130 0
117 -131 0
129 -131 0
-117 -129 131 0
-117 -129 -132 0
117 129 -132 0
-117 129 132 0
117 -129 132 0
118 -133 0
131 -133 0
-118 -131 133 0
-118 -131 -134 0
118 131 -134 0
-118 131 134 0
118 -131 134 0
119 -135 0
133 -135 0
-119 -133 135 0
-119 -133 -136 0
119 133 -136 0
-119 133 136 0
119 -133 136 0
14 -114 137 0
14 114 -137 0
-14 114 137 0
-14 -114 -137 0
14 -115 138 0
14 115 -138 0
-14 128 138 0
-14 -128 -138 0
14 -116 139 0
14 116 -139 0
-14 -130 139 0
-14 130 -139 0
14 -117 140 0
14 117 -140 0
-14 -132 140 0
-14 132 -140 0
14 -118 141 0
14 118 -141 0
-14 -134 141 0
-14 134 -141 0
14 -119 142 0
14 119 -142 0
-14 -136 142 0
-14 136 -142 0
14 -143 0
135 -143 0
-14 -135 143 0
-144 -145 0
144 145 0
-16 145 -146 0
16 -145 -146 0
-16 -145 146 0
16 145 146 0
-146 0
-15 -145 -147 0
15 145 -147 0
-15 145 147 0
15 -145 147 0
-147 0
-145 -149 0
145 149 0
-15 150 0
-149 150 0
15 149 -150 0
-138 151 0
-137 151 0
137 138 -151 0
-137 -138 -152 0
137 138 -152 0
137 -138 152 0
-137 138 152 0
139 -153 0
151 -153 0
-139 -151 153 0
-139 -151 -154 0
139 151 -154 0
-139 151 154 0
139 -151 154 0
140 -155 0
153 -155 0
-140 -153 155 0
-140 -153 -156 0
140 153 -156 0
-140 153 156 0
140 -153 156 0
141 -157 0
155 -157 0
-141 -155 157 0
-141 -155 -158 0
141 155 -158 0
-141 155 158 0
141 -155 158 0
142 -159 0
157 -159 0
-142 -157 159 0
-142 -157 -160 0
142 157 -160 0
-142 157 160 0
142 -157 160 0
143 -161 0
159 -161 0
-143 -159 161 0
-143 -159 -162 0
143 159 -162 0
-143 159 162 0
143 -159 162 0
16 -137 163 0
16 137 -163 0
-16 137 163 0
-16 -137 -163 0
16 -138 164 0
16 138 -164 0
-16 152 164 0
-16 -152 -164 0
16 -139 165 0
16 139 -165 0
-16 -154 165 0
-16 154 -165 0
16 -140 166 0
16 140 -166 0
-16 -156 166 0
-16 156 -166 0
16 -141 167 0
16 141 -167 0
-16 -158 167 0
-16 158 -167 0
16 -142 168 0
16 142 -168 0
-16 -160 168 0
-16 160 -168 0
16 -143 169 0
16 143 -169 0
-16 -162 169 0
-16 162 -169 0
16 -170 0
161 -170 0
-16 -161 170 0
-171 -172 0
171 172 0
-18 172 -173 0
18 -172 -173 0
-18 -172 173 0
18 172 173 0
-173 0
-17 -172 -174 0
17 172 -174 0
-17 172 174 0
17 -172 174 0
-174 0
-172 -176 0
172 176 0
-17 177 0
-176 177 0
17 176 -177 0
164 -178 0
163 -178 0
-163 -164 178 0
-163 -164 -179 0
163 164 -179 0
163 -164 179 0
-163 164 179 0
-165 180 0
-178 180 0
165 178 -180 0
-165 -178 -181 0
165 178 -181 0
-165 178 181 0
165 -178 181 0
166 -182 0
180 -182 0
-166 -180 182 0
-166 -180 -183 0
166 180 -183 0
-166 180 183 0
166 -180 183 0
167 -184 0
182 -184 0
-167 -182 184 0
-167 -182 -185 0
167 182 -185 0
-167 182 185 0
167 -182 185 0
168 -186 0
184 -186 0
-168 -184 186 0
-168 -184 -187 0
168 184 -187 0
-168 184 187 0
168 -184 187 0
169 -188 0
186 -188 0
-169 -186 188 0
-169 -186 -189 0
169 186 -189 0
-169 186 189 0
169 -186 189 0
170 -190 0
188 -190 0
-170 -188 190 0
-170 -188 -191 0
170 188 -191 0
-170 188 191 0
170 -188 191 0
18 -163 192 0
18 163 -192 0
-18 163 192 0
-18 -163 -192 0
18 -164 193 0
18 164 -193 0
-18 -179 193 0
-18 179 -193 0
18 -165 194 0
18 165 -194 0
-18 181 194 0
-18 -181 -194 0
18 -166 195 0
18 166 -195 0
-18 -183 195 0
-18 183 -195 0
18 -167 196 0
18 167 -196 0
-18 -185 196 0
-18 185 -196 0
18 -168 197 0
18 168 -197 0
-18 -187 197 0
-18 187 -197 0
18 -169 198 0
18 169 -198 0
-18 -189 198 0
-18 189 -198 0
18 -170 199 0
18 170 -199 0
-18 -191 199 0
-18 191 -199 0
18 -200 0
190 -200 0
-18 -190 200 0
-201 -202 0
201 202 0
-20 202 -203 0
20 -202 -203 0
-20 -202 203 0
20 202 203 0
-203 0
-19 -202 -204 0
19 202 -204 0
-19 202 204 0
19 -202 204 0
-204 0
-202 -206 0
202 206 0
-19 207 0
-206 207 0
19 206 -207 0
193 -208 0
192 -208 0
-192 -193 208 0
-192 -193 -209 0
192 193 -209 0
192 -193 209 0
-192 193 209 0
-194 210 0
-208 210 0
194 208 -210 0
-194 -208 -211 0
194 208 -211 0
-194 208 211 0
194 -208 211 0
195 -212 0
210 -212 0
-195 -210 212 0
-195 -210 -213 0
195 210 -213 0
-195 210 213 0
195 -210 213 0
196 -214 0
212 -214 0
-196 -212 214 0
-196 -212 -215 0
196 212 -215 0
-196 212 215 0
196 -212 215 0
197 -216 0
214 -216 0
-197 -214 216 0
-197 -214 -217 0
197 214 -217 0
-197 214 217 0
197 -214 217 0
198 -218 0
216 -218 0
-198 -216 218 0
-198 -216 -219 0
198 216 -219 0
-198 216 219 0
198 -216 219 0
199 -220 0
218 -220 0
-199 -218 220 0
-199 -218 -221 0
199 218 -221 0
-199 218 221 0
199 -218 221 0
200 -222 0
220 -222 0
-200 -220 222 0
-200 -220 -223 0
200 220 -223 0
-200 220 223 0
200 -220 223 0
20 -192 224 0
20 192 -224 0
-20 192 224 0
-20 -192 -224 0
20 -193 225 0
20 193 -225 0
-20 -209 225 0
-20 209 -225 0
20 -194 226 0
20 194 -226 0
-20 211 226 0
-20 -211 -226 0
20 -195 227 0
20 195 -227 0
-20 -213 227 0
-20 213 -227 0
20 -196 228 0
20 196 -228 0
-20 -215 228 0
-20 215 -228 0
20 -197 229 0
20 197 -229 0
-20 -217 229 0
-20 217 -229 0
20 -198 230 0
20 198 -230 0
-20 -219 230 0
-20 219 -230 0
20 -199 231 0
20 199 -231 0
-20 -221 231 0
-20 221 -231 0
20 -200 232 0
20 200 -232 0
-20 -223 232 0
-20 223 -232 0
20 -233 0
222 -233 0
-20 -222 233 0
-234 -235 0
234 235 0
-22 235 -236 0
22 -235 -236 0
-22 -235 236 0
22 235 236 0
-236 0
-21 -235 -237 0
21 235 -237 0
-21 235 237 0
21 -235 237 0
-237 0
-235 -239 0
235 239 0
-21 240 0
-239 240 0
21 239 -240 0
225 -241 0
224 -241 0
-224 -225 241 0
-224 -225 -242 0
224 225 -242 0
224 -225 242 0
-224 225 242 0
-226 243 0
-241 243 0
226 241 -243 0
-226 -241 -244 0
226 241 -244 0
-226 241 244 0
226 -241 244 0
227 -245 0
243 -245 0
-227 -243 245 0
-227 -243 -246 0
227 243 -246 0
-227 243 246 0
227 -243 246 0
228 -247 0
245 -247 0
-228 -245 247 0
-228 -245 -248 0
228 245 -248 0
-228 245 248 0
228 -245 248 0
229 -249 0
247 -249 0
-229 -247 249 0
-229 -247 -250 0
229 247 -250 0
-229 247 250 0
229 -247 250 0
230 -251 0
249 -251 0
-230 -249 251 0
-230 -249 -252 0
230 249 -252 0
-230 249 252 0
230 -249 252 0
231 -253 0
251 -253 0
-231 -251 253 0
-231 -251 -254 0
231 251 -254 0
-231 251 254 0
231 -251 254 0
232 -255 0
253 -255 0
-232 -253 255 0
-232 -253 -256 0
232 253 -256 0
-232 253 256 0
232 -253 256 0
233 -257 0
255 -257 0
-233 -255 257 0
-233 -255 -258 0
233 255 -258 0
-233 255 258 0
233 -255 258 0
22 -224 259 0
22 224 -259 0
-22 224 259 0
-22 -224 -259 0
22 -225 260 0
22 225 -260 0
-22 -242 260 0
-22 242 -260 0
22 -226 261 0
22 226 -261 0
-22 244 261 0
-22 -244 -261 0
22 -227 262 0
22 227 -262 0
-22 -246 262 0
-22 246 -262 0
22 -228 263 0
22 228 -263 0
-22 -248 263 0
-22 248 -263 0
22 -229 264 0
22 229 -264 0
-22 -250 264 0
-22 250 -264 0
22 -230 265 0
22 230 -265 0
-22 -252 265 0
-22 252 -265 0
22 -231 266 0
22 231 -266 0
-22 -254 266 0
-22 254 -266 0
22 -232 267 0
22 232 -267 0
-22 -256 267 0
-22 256 -267 0
22 -233 268 0
22 233 -268 0
-22 -258 268 0
-22 258 -268 0
22 -269 0
257 -269 0
-22 -257 269 0
-270 -271 0
270 271 0
-24 271 -272 0
24 -271 -272 0
-24 -271 272 0
24 271 272 0
-272 0
-23 -271 -273 0
23 271 -273 0
-23 271 273 0
23 -271 273 0
-273 0
-271 -275 0
271 275 0
-23 276 0
-275 276 0
23 275 -276 0
260 -277 0
259 -277 0
-259 -260 277 0
-259 -260 -278 0
259 260 -278 0
259 -260 278 0
-259 260 278 0
-261 279 0
-277 279 0
261 277 -279 0
-261 -277 -280 0
261 277 -280 0
-261 277 280 0
261 -277 280 0
262 -281 0
279 -281 0
-262 -279 281 0
-262 -279 -282 0
262 279 -282 0
-262 279 282 0
262 -279 282 0
263 -283 0
281 -283 0
-263 -281 283 0
-263 -281 -284 0
263 281 -284 0
-263 281 284 0
263 -281 284 0
264 -285 0
283 -285 0
-264 -283 285 0
-264 -283 -286 0
264 283 -286 0
-264 283 286 0
264 -283 286 0
265 -287 0
285 -287 0
-265 -285 287 0
-265 -285 -288 0
265 285 -288 0
-265 285 288 0
265 -285 288 0
266 -289 0
287 -289 0
-266 -287 289 0
-266 -287 -290 0
266 287 -290 0
-266 287 290 0
266 -287 290 0
267 -291 0
289 -291 0
-267 -289 291 0
-267 -289 -292 0
267 289 -292 0
-267 289 292 0
267 -289 292 0
268 -293 0
291 -293 0
-268 -291 293 0
-268 -291 -294 0
268 291 -294 0
-268 291 294 0
268 -291 294 0
269 -295 0
293 -295 0
-269 -293 295 0
-269 -293 -296 0
269 293 -296 0
-269 293 296 0
269 -293 296 0
24 -259 297 0
24 259 -297 0
-24 259 297 0
-24 -259 -297 0
24 -260 298 0
24 260 -298 0
-24 -278 298 0
-24 278 -298 0
24 -261 299 0
24 261 -299 0
-24 280 299 0
-24 -280 -299 0
24 -262 300 0
24 262 -300 0
-24 -282 300 0
-24 282 -300 0
24 -263 301 0
24 263 -301 0
-24 -284 301 0
-24 284 -301 0
24 -264 302 0
24 264 -302 0
-24 -286 302 0
-24 286 -302 0
24 -265 303 0
24 265 -303 0
-24 -288 303 0
-24 288 -303 0
24 -266 304 0
24 266 -304 0
-24 -290 304 0
-24 290 -304 0
24 -267 305 0
24 267 -305 0
-24 -292 305 0
-24 292 -305 0
24 -268 306 0
24 268 -306 0
-24 -294 306 0
-24 294 -306 0
24 -269 307 0
24 269 -307 0
-24 -296 307 0
-24 296 -307 0
24 -308 0
295 -308 0
-24 -295 308 0
44 0
51 0
60 0
72 0
87 0
105 0
126 0
150 0
177 0
207 0
240 0
276 0
-575 -577 -579 0
575 577 -579 0
-575 577 579 0
575 -577 579 0
-576 -578 -580 0
576 578 -580 0
-576 578 580 0
576 -578 580 0
-579 -581 0
-580 -581 0
579 580 581 0
-25 581 0
25 -581 0
c FALSE __CPROVER_malloc_is_new_array#1
c 478 main::1::I!0@1#1
c FALSE main::1::I!0@1#2
c 2 main::1::I!0@1#3
c 42 main::$tmp::tmp_if_expr$2!0@1#1
c 1 goto_symex::\guard#1
c TRUE main::$tmp::tmp_if_expr$2!0@1#2
c 42 main::$tmp::tmp_if_expr$2!0@1#3
c 43 main::$tmp::tmp_if_expr$2!0@1#4
c 44 main::$tmp::tmp_if_expr$2!0@1#5
c 4 main::1::I!0@1#4
c 49 main::$tmp::tmp_if_expr$2!0@1#7
c 3 goto_symex::\guard#2
c TRUE main::$tmp::tmp_if_expr$2!0@1#8
c 49 main::$tmp::tmp_if_expr$2!0@1#9
c 50 main::$tmp::tmp_if_expr$2!0@1#10
c 51 main::$tmp::tmp_if_expr$2!0@1#11
c 6 main::1::I!0@1#5
c 58 main::$tmp::tmp_if_expr$2!0@1#13
c 5 goto_symex::\guard#3
c TRUE main::$tmp::tmp_if_expr$2!0@1#14
c 58 main::$tmp::tmp_if_expr$2!0@1#15
c 59 main::$tmp::tmp_if_expr$2!0@1#16
c 60 main::$tmp::tmp_if_expr$2!0@1#17
c 8 main::1::I!0@1#6
c 70 main::$tmp::tmp_if_expr$2!0@1#19
c 7 goto_symex::\guard#4
c TRUE main::$tmp::tmp_if_expr$2!0@1#20
c 70 main::$tmp::tmp_if_expr$2!0@1#21
c 71 main::$tmp::tmp_if_expr$2!0@1#22
c 72 main::$tmp::tmp_if_expr$2!0@1#23
c 10 main::1::I!0@1#7
c 85 main::$tmp::tmp_if_expr$2!0@1#25
c 9 goto_symex::\guard#5
c TRUE main::$tmp::tmp_if_expr$2!0@1#26
c 85 main::$tmp::tmp_if_expr$2!0@1#27
c 86 main::$tmp::tmp_if_expr$2!0@1#28
c 87 main::$tmp::tmp_if_expr$2!0@1#29
c 12 main::1::I!0@1#8
c 103 main::$tmp::tmp_if_expr$2!0@1#31
c 11 goto_symex::\guard#6
c TRUE main::$tmp::tmp_if_expr$2!0@1#32
c 103 main::$tmp::tmp_if_expr$2!0@1#33
c 104 main::$tmp::tmp_if_expr$2!0@1#34
c 105 main::$tmp::tmp_if_expr$2!0@1#35
c 14 main::1::I!0@1#9
c 124 main::$tmp::tmp_if_expr$2!0@1#37
c 13 goto_symex::\guard#7
c TRUE main::$tmp::tmp_if_expr$2!0@1#38
c 124 main::$tmp::tmp_if_expr$2!0@1#39
c 125 main::$tmp::tmp_if_expr$2!0@1#40
c 126 main::$tmp::tmp_if_expr$2!0@1#41
c 16 main::1::I!0@1#10
c 148 main::$tmp::tmp_if_expr$2!0@1#43
c 15 goto_symex::\guard#8
c TRUE main::$tmp::tmp_if_expr$2!0@1#44
c 148 main::$tmp::tmp_if_expr$2!0@1#45
c 149 main::$tmp::tmp_if_expr$2!0@1#46
c 150 main::$tmp::tmp_if_expr$2!0@1#47
c 18 main::1::I!0@1#11
c 175 main::$tmp::tmp_if_expr$2!0@1#49
c 17 goto_symex::\guard#9
c TRUE main::$tmp::tmp_if_expr$2!0@1#50
c 175 main::$tmp::tmp_if_expr$2!0@1#51
c 176 main::$tmp::tmp_if_expr$2!0@1#52
c 177 main::$tmp::tmp_if_expr$2!0@1#53
c 20 main::1::I!0@1#12
c 205 main::$tmp::tmp_if_expr$2!0@1#55
c 19 goto_symex::\guard#10
c TRUE main::$tmp::tmp_if_expr$2!0@1#56
c 205 main::$tmp::tmp_if_expr$2!0@1#57
c 206 main::$tmp::tmp_if_expr$2!0@1#58
c 207 main::$tmp::tmp_if_expr$2!0@1#59
c 22 main::1::I!0@1#13
c 238 main::$tmp::tmp_if_expr$2!0@1#61
c 21 goto_symex::\guard#11
c TRUE main::$tmp::tmp_if_expr$2!0@1#62
c 238 main::$tmp::tmp_if_expr$2!0@1#63
c 239 main::$tmp::tmp_if_expr$2!0@1#64
c 240 main::$tmp::tmp_if_expr$2!0@1#65
c 24 main::1::I!0@1#14
c 274 main::$tmp::tmp_if_expr$2!0@1#67
c 23 goto_symex::\guard#12
c TRUE main::$tmp::tmp_if_expr$2!0@1#68
c 274 main::$tmp::tmp_if_expr$2!0@1#69
c 275 main::$tmp::tmp_if_expr$2!0@1#70
c 276 main::$tmp::tmp_if_expr$2!0@1#71
c 317 main::$tmp::tmp_if_expr$2!0@1#72
c 317 main::$tmp::tmp_if_expr$2!0@1#74
c __CPROVER_malloc_size#1 FALSE FALSE FALSE FALSE FALSE FALSE FALSE FALSE FALSE FALSE FALSE FALSE FALSE FALSE FALSE FALSE FALSE FALSE FALSE FALSE FALSE FALSE FALSE FALSE FALSE FALSE FALSE FALSE FALSE FALSE FALSE FALSE FALSE FALSE FALSE FALSE FALSE FALSE FALSE FALSE FALSE FALSE FALSE FALSE FALSE FALSE FALSE FALSE FALSE FALSE FALSE FALSE FALSE FALSE FALSE FALSE FALSE FALSE FALSE FALSE FALSE FALSE FALSE FALSE
c __CPROVER_next_thread_id#1 FALSE FALSE FALSE FALSE FALSE FALSE FALSE FALSE FALSE FALSE FALSE FALSE FALSE FALSE FALSE FALSE FALSE FALSE FALSE FALSE FALSE FALSE FALSE FALSE FALSE FALSE FALSE FALSE FALSE FALSE FALSE FALSE FALSE FALSE FALSE FALSE FALSE FALSE FALSE FALSE FALSE FALSE FALSE FALSE FALSE FALSE FALSE FALSE FALSE FALSE FALSE FALSE FALSE FALSE FALSE FALSE FALSE FALSE FALSE FALSE FALSE FALSE FALSE FALSE
c main::1::global_consumption!0@1#9 -63 74 76 75 FALSE FALSE FALSE FALSE FALSE FALSE FALSE FALSE FALSE FALSE FALSE FALSE FALSE FALSE FALSE FALSE FALSE FALSE FALSE FALSE FALSE FALSE FALSE FALSE FALSE FALSE FALSE FALSE
c __CPROVER_pipe_count#1 FALSE FALSE FALSE FALSE FALSE FALSE FALSE FALSE FALSE FALSE FALSE FALSE FALSE FALSE FALSE FALSE FALSE FALSE FALSE FALSE FALSE FALSE FALSE FALSE FALSE FALSE FALSE FALSE FALSE FALSE FALSE FALSE
c main::1::global_consumption!0@1#10 77 78 79 80 FALSE FALSE FALSE FALSE FALSE FALSE FALSE FALSE FALSE FALSE FALSE FALSE FALSE FALSE FALSE FALSE FALSE FALSE FALSE FALSE FALSE FALSE FALSE FALSE FALSE FALSE FALSE FALSE
c main::1::i!0@1#6 FALSE FALSE TRUE FALSE FALSE FALSE FALSE FALSE FALSE FALSE FALSE FALSE FALSE FALSE FALSE FALSE FALSE FALSE FALSE FALSE FALSE FALSE FALSE FALSE FALSE FALSE FALSE FALSE FALSE FALSE FALSE FALSE
c __CPROVER_rounding_mode!0#1 FALSE FALSE FALSE FALSE FALSE FALSE FALSE FALSE FALSE FALSE FALSE FALSE FALSE FALSE FALSE FALSE FALSE FALSE FALSE FALSE FALSE FALSE FALSE FALSE FALSE FALSE FALSE FALSE FALSE FALSE FALSE FALSE
c __CPROVER_thread_id!0#1 FALSE FALSE FALSE FALSE FALSE FALSE FALSE FALSE FALSE FALSE FALSE FALSE FALSE FALSE FALSE FALSE FALSE FALSE FALSE FALSE FALSE FALSE FALSE FALSE FALSE FALSE FALSE FALSE FALSE FALSE FALSE FALSE FALSE FALSE FALSE FALSE FALSE FALSE FALSE FALSE FALSE FALSE FALSE FALSE FALSE FALSE FALSE FALSE FALSE FALSE FALSE FALSE FALSE FALSE FALSE FALSE FALSE FALSE FALSE FALSE FALSE FALSE FALSE FALSE
c large_consumption#1 TRUE FALSE TRUE FALSE FALSE FALSE FALSE FALSE FALSE FALSE FALSE FALSE FALSE FALSE FALSE FALSE FALSE FALSE FALSE FALSE FALSE FALSE FALSE FALSE FALSE FALSE FALSE FALSE FALSE FALSE FALSE FALSE
c main::1::global_consumption!0@1#23 -224 242 -244 246 248 250 252 254 256 258 257 FALSE FALSE FALSE FALSE FALSE FALSE FALSE FALSE FALSE FALSE FALSE FALSE FALSE FALSE FALSE FALSE FALSE FALSE FALSE FALSE FALSE
c medium_consumption#1 TRUE TRUE FALSE FALSE FALSE FALSE FALSE FALSE FALSE FALSE FALSE FALSE FALSE FALSE FALSE FALSE FALSE FALSE FALSE FALSE FALSE FALSE FALSE FALSE FALSE FALSE FALSE FALSE FALSE FALSE FALSE FALSE
c main::1::global_consumption!0@1#24 259 260 261 262 263 264 265 266 267 268 269 FALSE FALSE FALSE FALSE FALSE FALSE FALSE FALSE FALSE FALSE FALSE FALSE FALSE FALSE FALSE FALSE FALSE FALSE FALSE FALSE FALSE
c small_consumption#1 TRUE FALSE FALSE FALSE FALSE FALSE FALSE FALSE FALSE FALSE FALSE FALSE FALSE FALSE FALSE FALSE FALSE FALSE FALSE FALSE FALSE FALSE FALSE FALSE FALSE FALSE FALSE FALSE FALSE FALSE FALSE FALSE
c main::1::i!0@1#13 TRUE TRUE FALSE TRUE FALSE FALSE FALSE FALSE FALSE FALSE FALSE FALSE FALSE FALSE FALSE FALSE FALSE FALSE FALSE FALSE FALSE FALSE FALSE FALSE FALSE FALSE FALSE FALSE FALSE FALSE FALSE FALSE
c main::1::global_consumption!0@1#11 -77 -89 91 93 92 FALSE FALSE FALSE FALSE FALSE FALSE FALSE FALSE FALSE FALSE FALSE FALSE FALSE FALSE FALSE FALSE FALSE FALSE FALSE FALSE FALSE FALSE FALSE FALSE FALSE FALSE FALSE
c main::1::global_consumption!0@1#12 94 95 96 97 98 FALSE FALSE FALSE FALSE FALSE FALSE FALSE FALSE FALSE FALSE FALSE FALSE FALSE FALSE FALSE FALSE FALSE FALSE FALSE FALSE FALSE FALSE FALSE FALSE FALSE FALSE FALSE
c main::1::i!0@1#7 TRUE FALSE TRUE FALSE FALSE FALSE FALSE FALSE FALSE FALSE FALSE FALSE FALSE FALSE FALSE FALSE FALSE FALSE FALSE FALSE FALSE FALSE FALSE FALSE FALSE FALSE FALSE FALSE FALSE FALSE FALSE FALSE
c main::1::global_consumption!0@1#25 -259 278 -280 282 284 286 288 290 292 294 296 295 FALSE FALSE FALSE FALSE FALSE FALSE FALSE FALSE FALSE FALSE FALSE FALSE FALSE FALSE FALSE FALSE FALSE FALSE FALSE FALSE
c main::1::global_consumption!0@1#26 297 298 299 300 301 302 303 304 305 306 307 308 FALSE FALSE FALSE FALSE FALSE FALSE FALSE FALSE FALSE FALSE FALSE FALSE FALSE FALSE FALSE FALSE FALSE FALSE FALSE FALSE
c main::1::i!0@1#14 FALSE FALSE TRUE TRUE FALSE FALSE FALSE FALSE FALSE FALSE FALSE FALSE FALSE FALSE FALSE FALSE FALSE FALSE FALSE FALSE FALSE FALSE FALSE FALSE FALSE FALSE FALSE FALSE FALSE FALSE FALSE FALSE
c main::1::global_consumption!0@1#1 318 319 320 321 322 323 324 325 326 327 328 329 330 331 332 333 334 335 336 337 338 339 340 341 342 343 344 345 346 347 348 349
c main::1::global_consumption!0@1#13 -94 -107 109 111 113 112 FALSE FALSE FALSE FALSE FALSE FALSE FALSE FALSE FALSE FALSE FALSE FALSE FALSE FALSE FALSE FALSE FALSE FALSE FALSE FALSE FALSE FALSE FALSE FALSE FALSE FALSE
c main::1::global_consumption!0@1#2 FALSE FALSE FALSE FALSE FALSE FALSE FALSE FALSE FALSE FALSE FALSE FALSE FALSE FALSE FALSE FALSE FALSE FALSE FALSE FALSE FALSE FALSE FALSE FALSE FALSE FALSE FALSE FALSE FALSE FALSE FALSE FALSE
c main::1::i!0@1#1 350 351 352 353 354 355 356 357 358 359 360 361 362 363 364 365 366 367 368 369 370 371 372 373 374 375 376 377 378 379 380 381
c main::1::global_consumption!0@1#14 114 115 116 117 118 119 FALSE FALSE FALSE FALSE FALSE FALSE FALSE FALSE FALSE FALSE FALSE FALSE FALSE FALSE FALSE FALSE FALSE FALSE FALSE FALSE FALSE FALSE FALSE FALSE FALSE FALSE
c main::1::i!0@1#2 FALSE FALSE FALSE FALSE FALSE FALSE FALSE FALSE FALSE FALSE FALSE FALSE FALSE FALSE FALSE FALSE FALSE FALSE FALSE FALSE FALSE FALSE FALSE FALSE FALSE FALSE FALSE FALSE FALSE FALSE FALSE FALSE
c main::1::S!0@1#1 382 383 384 385 386 387 388 389 390 391 392 393 394 395 396 397 398 399 400 401 402 403 404 405 406 407 408 409 410 411 412 413
c main::1::i!0@1#8 FALSE TRUE TRUE FALSE FALSE FALSE FALSE FALSE FALSE FALSE FALSE FALSE FALSE FALSE FALSE FALSE FALSE FALSE FALSE FALSE FALSE FALSE FALSE FALSE FALSE FALSE FALSE FALSE FALSE FALSE FALSE FALSE
c main::1::S!0@1#2 FALSE FALSE TRUE FALSE FALSE FALSE FALSE FALSE FALSE FALSE FALSE FALSE FALSE FALSE FALSE FALSE FALSE FALSE FALSE FALSE FALSE FALSE FALSE FALSE FALSE FALSE FALSE FALSE FALSE FALSE FALSE FALSE
c main::1::M!0@1#1 414 415 416 417 418 419 420 421 422 423 424 425 426 427 428 429 430 431 432 433 434 435 436 437 438 439 440 441 442 443 444 445
c main::1::M!0@1#2 FALSE FALSE TRUE FALSE FALSE FALSE FALSE FALSE FALSE FALSE FALSE FALSE FALSE FALSE FALSE FALSE FALSE FALSE FALSE FALSE FALSE FALSE FALSE FALSE FALSE FALSE FALSE FALSE FALSE FALSE FALSE FALSE
c main::1::L!0@1#1 446 447 448 449 450 451 452 453 454 455 456 457 458 459 460 461 462 463 464 465 466 467 468 469 470 471 472 473 474 475 476 477
c main::1::L!0@1#2 FALSE FALSE TRUE FALSE FALSE FALSE FALSE FALSE FALSE FALSE FALSE FALSE FALSE FALSE FALSE FALSE FALSE FALSE FALSE FALSE FALSE FALSE FALSE FALSE FALSE FALSE FALSE FALSE FALSE FALSE FALSE FALSE
c main::1::global_consumption!0@1#15 -114 -128 130 132 134 136 135 FALSE FALSE FALSE FALSE FALSE FALSE FALSE FALSE FALSE FALSE FALSE FALSE FALSE FALSE FALSE FALSE FALSE FALSE FALSE FALSE FALSE FALSE FALSE FALSE FALSE
c main::1::global_consumption!0@1#16 137 138 139 140 141 142 143 FALSE FALSE FALSE FALSE FALSE FALSE FALSE FALSE FALSE FALSE FALSE FALSE FALSE FALSE FALSE FALSE FALSE FALSE FALSE FALSE FALSE FALSE FALSE FALSE FALSE
c main::1::i!0@1#9 TRUE TRUE TRUE FALSE FALSE FALSE FALSE FALSE FALSE FALSE FALSE FALSE FALSE FALSE FALSE FALSE FALSE FALSE FALSE FALSE FALSE FALSE FALSE FALSE FALSE FALSE FALSE FALSE FALSE FALSE FALSE FALSE
c main::1::global_consumption!0@1#3 TRUE FALSE FALSE FALSE FALSE FALSE FALSE FALSE FALSE FALSE FALSE FALSE FALSE FALSE FALSE FALSE FALSE FALSE FALSE FALSE FALSE FALSE FALSE FALSE FALSE FALSE FALSE FALSE FALSE FALSE FALSE FALSE
c main::1::global_consumption!0@1#4 2 FALSE FALSE FALSE FALSE FALSE FALSE FALSE FALSE FALSE FALSE FALSE FALSE FALSE FALSE FALSE FALSE FALSE FALSE FALSE FALSE FALSE FALSE FALSE FALSE FALSE FALSE FALSE FALSE FALSE FALSE FALSE
c main::1::i!0@1#3 TRUE FALSE FALSE FALSE FALSE FALSE FALSE FALSE FALSE FALSE FALSE FALSE FALSE FALSE FALSE FALSE FALSE FALSE FALSE FALSE FALSE FALSE FALSE FALSE FALSE FALSE FALSE FALSE FALSE FALSE FALSE FALSE
c main::1::global_consumption!0@1#17 -137 -152 154 156 158 160 162 161 FALSE FALSE FALSE FALSE FALSE FALSE FALSE FALSE FALSE FALSE FALSE FALSE FALSE FALSE FALSE FALSE FALSE FALSE FALSE FALSE FALSE FALSE FALSE FALSE
c main::1::global_consumption!0@1#18 163 164 165 166 167 168 169 170 FALSE FALSE FALSE FALSE FALSE FALSE FALSE FALSE FALSE FALSE FALSE FALSE FALSE FALSE FALSE FALSE FALSE FALSE FALSE FALSE FALSE FALSE FALSE FALSE
c main::1::i!0@1#10 FALSE FALSE FALSE TRUE FALSE FALSE FALSE FALSE FALSE FALSE FALSE FALSE FALSE FALSE FALSE FALSE FALSE FALSE FALSE FALSE FALSE FALSE FALSE FALSE FALSE FALSE FALSE FALSE FALSE FALSE FALSE FALSE
c main::1::global_consumption!0@1#5 -2 2 FALSE FALSE FALSE FALSE FALSE FALSE FALSE FALSE FALSE FALSE FALSE FALSE FALSE FALSE FALSE FALSE FALSE FALSE FALSE FALSE FALSE FALSE FALSE FALSE FALSE FALSE FALSE FALSE FALSE FALSE
c main::1::global_consumption!0@1#6 52 53 FALSE FALSE FALSE FALSE FALSE FALSE FALSE FALSE FALSE FALSE FALSE FALSE FALSE FALSE FALSE FALSE FALSE FALSE FALSE FALSE FALSE FALSE FALSE FALSE FALSE FALSE FALSE FALSE FALSE FALSE
c main::1::i!0@1#4 FALSE TRUE FALSE FALSE FALSE FALSE FALSE FALSE FALSE FALSE FALSE FALSE FALSE FALSE FALSE FALSE FALSE FALSE FALSE FALSE FALSE FALSE FALSE FALSE FALSE FALSE FALSE FALSE FALSE FALSE FALSE FALSE
c main::1::global_consumption!0@1#19 -163 179 -181 183 185 187 189 191 190 FALSE FALSE FALSE FALSE FALSE FALSE FALSE FALSE FALSE FALSE FALSE FALSE FALSE FALSE FALSE FALSE FALSE FALSE FALSE FALSE FALSE FALSE FALSE
c main::1::global_consumption!0@1#20 192 193 194 195 196 197 198 199 200 FALSE FALSE FALSE FALSE FALSE FALSE FALSE FALSE FALSE FALSE FALSE FALSE FALSE FALSE FALSE FALSE FALSE FALSE FALSE FALSE FALSE FALSE FALSE
c main::1::i!0@1#11 TRUE FALSE FALSE TRUE FALSE FALSE FALSE FALSE FALSE FALSE FALSE FALSE FALSE FALSE FALSE FALSE FALSE FALSE FALSE FALSE FALSE FALSE FALSE FALSE FALSE FALSE FALSE FALSE FALSE FALSE FALSE FALSE
c main::1::global_consumption!0@1#7 -52 62 61 FALSE FALSE FALSE FALSE FALSE FALSE FALSE FALSE FALSE FALSE FALSE FALSE FALSE FALSE FALSE FALSE FALSE FALSE FALSE FALSE FALSE FALSE FALSE FALSE FALSE FALSE FALSE FALSE FALSE
c main::1::global_consumption!0@1#8 63 64 65 FALSE FALSE FALSE FALSE FALSE FALSE FALSE FALSE FALSE FALSE FALSE FALSE FALSE FALSE FALSE FALSE FALSE FALSE FALSE FALSE FALSE FALSE FALSE FALSE FALSE FALSE FALSE FALSE FALSE
c main::1::i!0@1#5 TRUE TRUE FALSE FALSE FALSE FALSE FALSE FALSE FALSE FALSE FALSE FALSE FALSE FALSE FALSE FALSE FALSE FALSE FALSE FALSE FALSE FALSE FALSE FALSE FALSE FALSE FALSE FALSE FALSE FALSE FALSE FALSE
c main::1::global_consumption!0@1#21 -192 209 -211 213 215 217 219 221 223 222 FALSE FALSE FALSE FALSE FALSE FALSE FALSE FALSE FALSE FALSE FALSE FALSE FALSE FALSE FALSE FALSE FALSE FALSE FALSE FALSE FALSE FALSE
c main::1::global_consumption!0@1#22 224 225 226 227 228 229 230 231 232 233 FALSE FALSE FALSE FALSE FALSE FALSE FALSE FALSE FALSE FALSE FALSE FALSE FALSE FALSE FALSE FALSE FALSE FALSE FALSE FALSE FALSE FALSE
c main::1::i!0@1#12 FALSE TRUE FALSE TRUE FALSE FALSE FALSE FALSE FALSE FALSE FALSE FALSE FALSE FALSE FALSE FALSE FALSE FALSE FALSE FALSE FALSE FALSE FALSE FALSE FALSE FALSE FALSE FALSE FALSE FALSE FALSE FALSE
